c read Graph
c width = 65
c time = 642 ms
c width = 7
c time = 830 ms
c width = 6
c time = 1391 ms
c width = 6
c time = 4082 ms
s td 72 7 78
b 1 1 2 14
b 2 2 3 14 15
b 3 11 12 25 26
b 4 3 14 15 27
b 5 11 25 26 39
b 6 40 53 54 67
b 7 52 64 65 77
b 8 40 54 67 68
b 9 52 64 76 77
b 10 3 4 5 17
b 11 3 5 17 29 40 41
b 12 3 17 28 29 40 41
b 13 3 16 17 28 29 40
b 14 3 16 27 28 40
b 15 3 15 16 27 28
b 16 5 17 29 40 41 55 69
b 17 5 17 29 41 43 55 69
b 18 5 17 29 31 43 55 69
b 19 5 17 19 31 43 55 69
b 20 5 7 19 31 43 55 69
b 21 7 19 31 43 55 57 69
b 22 7 19 31 43 45 57 69
b 23 7 19 31 33 45 57 69
b 24 7 19 21 33 45 57 69
b 25 7 9 21 33 45 57 69
b 26 9 21 33 45 57 69 71
b 27 9 21 33 45 57 59 71
b 28 9 21 33 45 47 59 71
b 29 9 21 33 35 47 59 71
b 30 9 21 23 35 47 59 71
b 31 9 23 35 47 59 71 73
b 32 9 23 35 47 59 61 73
b 33 9 23 35 47 49 61 73
b 34 9 23 35 37 49 61 73
b 35 9 23 37 49 61 73 75
b 36 9 23 37 49 61 63 75
b 37 9 23 37 49 51 63 75
b 38 9 23 37 51 52 63 75
b 39 51 52 63 75 76
b 40 51 52 63 64 76
b 41 9 11 23 37 51 52
b 42 9 10 11 23
b 43 11 23 37 38 51 52
b 44 11 23 24 37 38 52
b 45 11 24 38 39 52
b 46 11 24 25 38 39
b 47 37 49 50 51 63
b 48 49 61 62 63 75
b 49 23 35 36 37 49
b 50 9 21 22 23 35
b 51 35 47 48 49 61
b 52 21 33 34 35 47
b 53 7 8 9 21
b 54 5 6 7 19
b 55 7 19 20 21 33
b 56 61 73 74 75
b 57 47 59 60 61 73
b 58 59 71 72 73
b 59 33 45 46 47 59
b 60 57 69 70 71
b 61 19 31 32 33 45
b 62 45 57 58 59 71
b 63 31 43 44 45 57
b 64 5 17 18 19 31
b 65 17 29 30 31 43
b 66 43 55 56 57 69
b 67 29 41 42 43 55
b 68 40 41 55 68 69
b 69 40 41 54 55 68
b 70 65 77 78
b 71 53 66 67
b 72 12 13 26
1 2
2 4
3 72
3 5
4 15
5 46
6 71
6 8
7 70
7 9
8 69
9 40
10 11
11 16
11 12
12 13
13 14
14 15
16 68
16 17
17 67
17 18
18 65
18 19
19 64
19 20
20 54
20 21
21 66
21 22
22 63
22 23
23 61
23 24
24 55
24 25
25 53
25 26
26 60
26 27
27 62
27 28
28 59
28 29
29 52
29 30
30 50
30 31
31 58
31 32
32 57
32 33
33 51
33 34
34 49
34 35
35 56
35 36
36 48
36 37
37 47
37 38
38 41
38 39
39 40
41 43
41 42
43 44
44 45
45 46
68 69
